% Data file generated from RandomInstances/34_0.55_2.col DIMACS file
size = 34;

chi = 8;

adjacency = [|0,1,1,0,0,1,0,0,1,0,1,0,0,0,0,1,0,1,1,0,0,0,0,1,0,1,0,1,0,1,1,0,1,0,
|1,0,1,1,0,0,0,1,1,0,0,1,1,1,0,0,0,0,0,0,0,0,0,0,0,0,0,0,1,1,1,1,1,1,
|1,1,0,1,1,1,1,1,0,1,1,0,0,1,0,0,0,1,1,1,1,1,0,1,1,0,1,1,1,0,1,0,0,1,
|0,1,1,0,1,0,0,1,0,0,0,0,0,1,0,0,1,1,0,0,1,1,1,0,0,1,0,0,0,0,1,1,0,1,
|0,0,1,1,0,1,0,1,0,1,0,0,1,0,1,0,1,1,1,0,1,1,0,1,0,1,0,1,0,1,1,0,0,1,
|1,0,1,0,1,0,1,0,1,1,1,1,1,0,0,1,0,1,1,0,0,0,1,1,1,1,1,0,1,0,0,1,0,0,
|0,0,1,0,0,1,0,1,1,0,1,1,1,0,1,1,1,1,1,1,1,1,1,0,0,1,1,0,1,0,1,0,1,1,
|0,1,1,1,1,0,1,0,0,0,0,0,1,0,0,1,0,1,1,1,0,0,1,1,1,0,1,1,0,1,0,0,1,1,
|1,1,0,0,0,1,1,0,0,0,1,0,1,1,1,0,1,0,0,1,0,1,1,0,1,1,0,0,0,1,1,1,1,1,
|0,0,1,0,1,1,0,0,0,0,0,1,1,0,0,1,0,1,1,0,0,1,1,1,0,0,1,1,0,0,0,0,0,1,
|1,0,1,0,0,1,1,0,1,0,0,0,1,1,0,1,0,0,1,1,1,0,1,1,0,0,1,1,1,0,0,1,0,0,
|0,1,0,0,0,1,1,0,0,1,0,0,1,0,1,1,1,1,0,1,0,1,0,0,1,1,0,0,0,1,0,0,0,0,
|0,1,0,0,1,1,1,1,1,1,1,1,0,1,0,1,1,0,1,0,0,1,0,1,0,1,0,0,0,0,0,1,0,1,
|0,1,1,1,0,0,0,0,1,0,1,0,1,0,0,0,0,1,1,0,0,0,1,1,1,0,1,1,0,1,1,0,0,1,
|0,0,0,0,1,0,1,0,1,0,0,1,0,0,0,1,1,1,0,0,1,0,1,0,0,1,1,0,0,1,0,0,0,0,
|1,0,0,0,0,1,1,1,0,1,1,1,1,0,1,0,0,0,0,1,1,0,0,0,1,1,0,0,1,0,1,0,0,0,
|0,0,0,1,1,0,1,0,1,0,0,1,1,0,1,0,0,1,0,0,1,0,1,1,1,0,1,0,0,0,1,0,1,1,
|1,0,1,1,1,1,1,1,0,1,0,1,0,1,1,0,1,0,0,1,0,0,1,0,0,1,0,1,0,0,0,1,0,1,
|1,0,1,0,1,1,1,1,0,1,1,0,1,1,0,0,0,0,0,0,0,1,0,1,1,0,1,0,1,0,0,1,0,0,
|0,0,1,0,0,0,1,1,1,0,1,1,0,0,0,1,0,1,0,0,1,1,0,1,0,0,1,1,1,1,0,0,0,0,
|0,0,1,1,1,0,1,0,0,0,1,0,0,0,1,1,1,0,0,1,0,1,0,0,1,1,0,1,1,1,1,0,1,1,
|0,0,1,1,1,0,1,0,1,1,0,1,1,0,0,0,0,0,1,1,1,0,1,0,1,1,1,1,0,0,1,0,1,0,
|0,0,0,1,0,1,1,1,1,1,1,0,0,1,1,0,1,1,0,0,0,1,0,0,1,0,0,1,0,1,0,0,1,0,
|1,0,1,0,1,1,0,1,0,1,1,0,1,1,0,0,1,0,1,1,0,0,0,0,0,0,1,1,1,0,1,1,1,1,
|0,0,1,0,0,1,0,1,1,0,0,1,0,1,0,1,1,0,1,0,1,1,1,0,0,0,1,1,0,0,0,0,0,0,
|1,0,0,1,1,1,1,0,1,0,0,1,1,0,1,1,0,1,0,0,1,1,0,0,0,0,1,1,0,1,0,1,1,0,
|0,0,1,0,0,1,1,1,0,1,1,0,0,1,1,0,1,0,1,1,0,1,0,1,1,1,0,1,1,1,0,0,0,0,
|1,0,1,0,1,0,0,1,0,1,1,0,0,1,0,0,0,1,0,1,1,1,1,1,1,1,1,0,0,1,0,1,0,1,
|0,1,1,0,0,1,1,0,0,0,1,0,0,0,0,1,0,0,1,1,1,0,0,1,0,0,1,0,0,1,1,1,1,1,
|1,1,0,0,1,0,0,1,1,0,0,1,0,1,1,0,0,0,0,1,1,0,1,0,0,1,1,1,1,0,0,1,1,1,
|1,1,1,1,1,0,1,0,1,0,0,0,0,1,0,1,1,0,0,0,1,1,0,1,0,0,0,0,1,0,0,1,1,1,
|0,1,0,1,0,1,0,0,1,0,1,0,1,0,0,0,0,1,1,0,0,0,0,1,0,1,0,1,1,1,1,0,1,0,
|1,1,0,0,0,0,1,1,1,0,0,0,0,0,0,0,1,0,0,0,1,1,1,1,0,1,0,0,1,1,1,1,0,0,
|0,1,1,1,1,0,1,1,1,1,0,0,1,1,0,0,1,1,0,0,1,0,0,1,0,0,0,1,1,1,1,0,0,0,
|];